c --- [ banner ] -------------------------------------------------------------
c 
c CaDiCaL Radically Simplified CDCL SAT Solver
c Copyright (c) 2016-2021 A. Biere, M. Fleury, N. Froleyks
c 
c Version 1.5.2 ca9bff05c11bde5eae4912f9932871d1527e61d8
c g++ (GCC) 9.3.0 -Wall -Wextra -O3 -DNDEBUG
c Thu Jul 28 23:42:48 EDT 2022 Linux gra-login3 3.10.0-1160.66.1.el7.x86_64 x86_64
c 
c --- [ limit ] --------------------------------------------------------------
c 
c setting conflict limit to 200000 conflicts (due to '200000')
c 
c --- [ parsing input ] ------------------------------------------------------
c 
c reading DIMACS file from '23.cubes669.adj'
c opening file to read '23.cubes669.adj'
c found 'p cnf 5320 914891' header
c parsed 914891 clauses in 8.18 seconds process time
c closing file '23.cubes669.adj'
c after reading 637829982 bytes 608.3 MB
c 
c --- [ options ] ------------------------------------------------------------
c 
c all options are set to their default value
c 
c --- [ solving ] ------------------------------------------------------------
c 
c time measured in process time since initialization
c 
c  seconds   reductions  redundant  irredundant
c          MB    restarts       trail      variables
c           level   conflicts       glue        remaining
c 
c *  8.18 628  0 0   0    0    0  0% 0 914847 2226 42%
c {  8.42 644  0 0   0    0    0  0% 0 914847 2226 42%
c i 10.34 698 146 0   3  115   70 23% 6 914847 2225 42%
c i 10.43 699 146 0   4  119   72 23% 8 914847 2200 41%
c i 12.69 717 103 0  34  254  173 24% 21 914847 2197 41%
c i 12.91 719 99 0  38  272  189 23% 20 914847 2196 41%
c i 12.95 719 98 0  40  277  193 23% 20 914847 2108 40%
c - 15.30 697 101 1  47  304  202 24% 22 179006 2107 40%
c i 15.54 657 102 1  52  323  219 24% 23 179006 2106 40%
c i 15.82 657 98 1  66  386  272 24% 23 179006 2105 40%
c i 15.82 657 98 1  66  387  272 24% 23 179006 2104 40%
c i 15.83 657 99 1  67  392  276 24% 23 179006 2103 40%
c i 15.83 657 100 1  67  395  278 24% 24 179006 2102 40%
c i 15.84 657 100 1  68  396  278 24% 24 179006 2101 39%
c i 15.85 657 101 1  69  399  280 24% 23 179006 2100 39%
c i 15.86 657 102 1  70  402  282 24% 23 179006 2099 39%
c i 15.86 657 102 1  70  404  283 24% 24 179006 2093 39%
c i 15.87 657 103 1  72  410  288 24% 24 179006 2082 39%
c i 15.92 657 105 1  74  423  298 24% 25 179006 2081 39%
c i 15.93 657 106 1  77  437  307 24% 26 179006 2080 39%
c 
c  seconds    reductions  redundant   irredundant
c          MB     restarts       trail       variables
c            level   conflicts       glue         remaining
c 
c i 15.93 657 105 1  77  438  307 24% 26 179006 2079 39%
c i 15.93 657 105 1  78  439  307 24% 26 179006 2078 39%
c i 16.00 657 106 1  83  473  331 24% 27 179006 2077 39%
c i 16.01 657 106 1  84  478  335 24% 27 179006 2076 39%
c i 16.03 657 106 1  85  481  337 24% 28 179006 2075 39%
c i 16.03 657 106 1  86  486  341 24% 28 179006 2074 39%
c i 16.04 657 106 1  87  489  342 24% 28 179006 2073 39%
c i 16.32 657 109 1  94  521  367 24% 29 179006 2071 39%
c i 16.60 657 100 1 109  604  418 25% 29 179006 2070 39%
c i 16.63 657 90 1 109  698  492 25% 28 179006 2069 39%
c i 16.64 657 89 1 109  705  497 25% 28 179006 2068 39%
c i 16.67 657 89 1 111  720  511 25% 29 179006 2067 39%
c i 16.67 657 89 1 111  722  512 25% 28 179006 2066 39%
c i 16.67 657 89 1 111  723  512 25% 28 179006 2065 39%
c i 16.71 657 87 1 114  759  546 26% 29 179006 2064 39%
c i 16.74 657 86 1 117  771  556 26% 29 179006 2063 39%
c i 16.75 657 86 1 117  774  558 26% 29 179006 2062 39%
c i 16.75 657 86 1 118  776  559 26% 29 179006 2061 39%
c i 17.49 657 85 1 156  964  719 26% 32 179006 2059 39%
c } 17.55 657 84 1 161 1000  752 26% 32 179006 2059 39%
c 
c  seconds   reductions  redundant  irredundant
c          MB    restarts       trail      variables
c           level   conflicts       glue        remaining
c 
c [ 17.55 657  0 1 161 1000  752  0% 0 179006 2059 39%
c O 17.60 657 39 1 161 1002  754 28% 38 179006 2059 39%
c i 17.64 657 12 1 161 1046  772 31% 11 179006 2058 39%
c - 18.03 722 13 2 161 1057  715 31% 11 178689 2058 39%
c i 18.11 722 13 2 161 1094  733 31% 12 178689 2057 39%
c i 18.18 722 13 2 161 1401  862 31% 12 178689 2056 39%
c i 18.18 722 13 2 161 1404  863 31% 11 178689 2055 39%
c i 18.18 722 13 2 161 1437  875 31% 11 178689 2054 39%
c i 18.22 722 14 2 161 1518  935 31% 13 178689 2053 39%
c i 18.40 722 15 2 162 2084 1236 31% 13 178689 2052 39%
c i 18.41 722 16 2 162 2111 1257 31% 13 178689 2051 39%
c - 18.68 721 18 3 162 2186  997 31% 15 178668 2051 39%
c i 18.84 721 18 3 162 2188  998 50% 15 178668 2050 39%
c ] 19.11 721 22 3 162 3000 1502 57% 19 178668 2050 39%
c { 19.11 721 84 3 162 3000 1502 67% 32 178668 2050 39%
c F 19.11 721 84 3 162 3004 1506 67% 32 178668 2050 39%
c i 19.40 721 69 3 162 3285 1695 64% 28 178668 2049 39%
c i 19.59 721 60 3 162 3563 1869 62% 25 178668 2048 38%
c - 19.86 720 57 4 162 3688 1484 62% 24 178659 2048 38%
c i 20.27 720 47 4 166 4197 1768 60% 22 178659 2047 38%
c 
c  seconds   reductions  redundant   irredundant
c          MB    restarts       trail       variables
c           level   conflicts       glue         remaining
c 
c d 20.96 720 39 4 166 5000 2263 59% 20 160085 2037 38%
c 2 21.00 720 39 4 166 5000 4100 59% 20 160082 1973 37%
c p 24.32 720 39 4 166 5000 10411 59% 20 160082 1831 34%
c d 24.54 720 39 4 166 5000 9551 59% 20 87773 1826 34%
c d 24.61 720 39 4 166 5000 9550 59% 20 84115 1819 34%
c - 25.05 634 35 5 169 5570 2046 58% 18 84115 1819 34%
c # 25.24 634 32 5 169 6005 2303 58% 18 84115 1819 34%
c } 26.29 635 33 5 283 7000 2973 49% 18 84115 1819 34%
c [ 26.29 635 22 5 283 7000 2973 64% 19 84115 1819 34%
c - 26.39 635 21 6 284 7371 2231 60% 18 84115 1819 34%
c - 26.87 635 21 7 285 9473 2475 54% 18 84115 1819 34%
c I 27.07 635 22 7 285 10008 2826 54% 18 84115 1819 34%
c - 27.61 635 25 8 287 11873 2814 53% 21 84115 1819 34%
c - 28.21 635 24 9 288 14578 2975 53% 21 84115 1819 34%
c ] 28.29 635 24 9 288 15000 3203 53% 21 84115 1819 34%
c { 28.29 635 33 9 288 15000 3203 49% 18 84115 1819 34%
c 2 28.31 635 33 9 288 15000 4933 49% 18 84109 1819 34%
c p 29.18 635 33 9 288 15000 10184 49% 18 84109 1818 34%
c B 29.25 635 33 9 288 15012 10193 49% 18 84109 1818 34%
c } 29.42 635 30 9 289 15926 10770 49% 18 84109 1818 34%
c 
c  seconds   reductions    redundant   irredundant
c          MB    restarts         trail      variables
c           level    conflicts        glue        remaining
c 
c 1 29.43 635 30 9 289 15926 10770 49% 18 84109 1818 34%
c 
c --- [ writing output ] -----------------------------------------------------
c 
c writing simplified CNF to DIMACS file 'simp/23.cubes669.adj.simp1'
c * 29.43 635 30 9 289 15926 10770 49% 18 84109 1818 34%
c opening file to write 'simp/23.cubes669.adj.simp1'
c writing 'p cnf 5320 84106' header
c closing file 'simp/23.cubes669.adj.simp1'
c after writing 37059907 bytes 35.3 MB
c wrote 84106 clauses in 0.27 seconds process time
c 
c --- [ writing extension ] --------------------------------------------------
c 
c writing extension stack to 'simp/23.cubes669.adj.ext1'
c opening file to write 'simp/23.cubes669.adj.ext1'
c closing file 'simp/23.cubes669.adj.ext1'
c after writing 10208 bytes 0.0 MB
c wrote 687 witnesses in 0.00 seconds process time
c 
c --- [ result ] -------------------------------------------------------------
c 
s SATISFIABLE
c 
c --- [ run-time profiling ] -------------------------------------------------
c 
c process time taken by individual solving procedures
c (percentage relative to process time for solving)
c 
c        16.38   77.06% search
c        12.58   59.20% unstable
c         8.18   38.47% parse
c         4.87   22.93% simplify
c         4.19   19.71% probe
c         3.55   16.72% stable
c         0.24    1.14% lucky
c         0.05    0.23% ternary
c   =================================
c        21.25   71.55% solve
c 
c last line shows process time for solving
c (percentage relative to total process time)
c 
c --- [ statistics ] ---------------------------------------------------------
c 
c chronological:              2997        18.82 %  of conflicts
c conflicts:                 15926       749.51    per second
c decisions:                 42733      2011.09    per second
c fixed:                       643        12.09 %  of all variables
c learned:                   15533        97.53 %  per conflict
c learned_lits:            2731604       100.00 %  learned literals
c minimized:                     0         0.00 %  learned literals
c shrunken:                2114336        77.40 %  learned literals
c minishrunken:              97771         3.58 %  learned literals
c propagations:            2002553         0.09 M  per second
c reduced:                    5948        37.35 %  per conflict
c rephased:                      5      3185.20    interval
c restarts:                    289        55.11    interval
c stabilizing:                   2        62.79 %  of conflicts
c substituted:                  22         0.41 %  of all variables
c subsumed:                   5772         0.30 %  of all clauses
c ternary:                    3577         0.89 %  of resolved
c weakened:                     44         2.00    average size
c 
c seconds are measured in process time for solving
c 
c --- [ resources ] ----------------------------------------------------------
c 
c total process time since initialization:        29.70    seconds
c total real time since initialization:           29.79    seconds
c maximum resident set size of process:          808.74    MB
c 
c --- [ shutting down ] ------------------------------------------------------
c 
c exit 10
WARNING! DIMACS header mismatch: wrong number of variables.
============================[ Problem Statistics ]=============================
|                                                                             |
|  Number of variables:          5282                                         |
|  Number of clauses:           84114                                         |
|  Parse time:                   0.51 s                                       |
|  Simplification time:          0.01 s                                       |
|                                                                             |
============================[ Search Statistics ]====================================================
| Conflicts |          ORIGINAL         |          LEARNT          | Num Sols |      SUBGRAPHS      |
|           |    Vars  Clauses Literals |    Limit  Clauses Lit/Cl |          | Canonical Noncanon. |
=====================================================================================================
|       167 |    5201    84181  8067300 |     2000      167     40 |        0 |        39        67 |
|       382 |    5201    84246  8068046 |     2000      382     50 |        0 |        50       132 |
|       768 |    5201    84407  8069715 |     2000      768     40 |        0 |       102       293 |
|      1447 |    5201    84749  8073804 |     2000     1447     37 |        0 |       179       635 |
|      2242 |    5201    85038  8077424 |     3603     1245     23 |        0 |       267       924 |
|      3161 |    5201    85198  8079344 |     3603     2164     37 |        0 |       297      1084 |
=====================================================================================================
Number of solutions   : 0
Canonical subgraphs   : 334            (73 /sec)
          order  3    : 1              (25641 /sec)
          order  4    : 1              (500000 /sec)
          order  5    : 1              (200000 /sec)
          order  6    : 1              (55556 /sec)
          order  7    : 2              (10050 /sec)
          order  8    : 2              (4598 /sec)
          order  9    : 2              (2002 /sec)
          order 10    : 4              (1053 /sec)
          order 11    : 10             (526 /sec)
          order 12    : 19             (306 /sec)
          order 13    : 88             (156 /sec)
          order 14    : 57             (88 /sec)
          order 15    : 97             (41 /sec)
          order 16    : 13             (49 /sec)
          order 17    : 18             (62 /sec)
          order 18    : 15             (55 /sec)
          order 19    : 2              (50 /sec)
          order 20    : 1              (42 /sec)
          order 21    : 0              (-nan /sec)
Noncanonical subgraphs: 1265           (699 /sec)
          order  3    : 0              (-nan /sec)
          order  4    : 0              (-nan /sec)
          order  5    : 0              (-nan /sec)
          order  6    : 0              (-nan /sec)
          order  7    : 0              (-nan /sec)
          order  8    : 0              (-nan /sec)
          order  9    : 0              (-nan /sec)
          order 10    : 0              (-nan /sec)
          order 11    : 0              (-nan /sec)
          order 12    : 0              (-nan /sec)
          order 13    : 261            (13538 /sec)
          order 14    : 412            (3981 /sec)
          order 15    : 281            (821 /sec)
          order 16    : 142            (183 /sec)
          order 17    : 159            (306 /sec)
          order 18    : 9              (363 /sec)
          order 19    : 0              (-nan /sec)
          order 20    : 0              (-nan /sec)
Canonicity checking   : 4.5678 s
Noncanonicity checking: 1.80974 s
Total canonicity time : 6.37754 s
database reductions   : 1
restarts              : 22
conflicts             : 4141           (516 /sec)
decisions             : 18730          (0.00 % random) (2335 /sec)
propagations          : 490946         (61208 /sec)
conflict literals     : 198405         (49.96 % deleted)
actual reward         : 0.100114
Memory used           : 59.00 MB
CPU time              : 8.02098 s

UNSATISFIABLE
